
List of user-set options:

                                    Name   Value                used
                           compl_inf_tol = 1                     yes
                         constr_viol_tol = 1                     yes
                            dual_inf_tol = 1000                  yes
                           linear_solver = ma97                  yes
                              ma86_small = 1e-30                  no
                                  ma86_u = 0.0001                 no
                              ma97_order = best                  yes
                              ma97_small = 1e-30                 yes
                            ma97_switch1 = at_start              yes
                            ma97_switch2 = od_hd_reuse           yes
                                  ma97_u = 1e-06                 yes
                               ma97_umax = 0.5                   yes
                                max_iter = 1000                  yes
                    max_refinement_steps = 20                    yes
                    min_refinement_steps = 5                     yes
                                 mu_init = 1e-06                 yes
           mu_superlinear_decrease_power = 1.25                  yes
                   nlp_scaling_min_value = 1e-08                 yes
                        option_file_name = Preset_Case_931_pf.opt  yes
                             output_file = ./tmp/Preset_Case_931_pf.output  yes
                      print_user_options = yes                   yes
        required_infeasibility_reduction = 1                      no
                                     tol = 1e-08                 yes
                   warm_start_bound_frac = 1e-20                 yes
                   warm_start_bound_push = 1e-20                 yes
                   warm_start_init_point = yes                   yes
              warm_start_mult_bound_push = 1e-20                 yes
                warm_start_mult_init_max = 1e+40                 yes
             warm_start_slack_bound_frac = 1e-20                 yes
             warm_start_slack_bound_push = 1e-20                 yes

******************************************************************************
This program contains Ipopt, a library for large-scale nonlinear optimization.
 Ipopt is released as open source code under the Eclipse Public License (EPL).
         For more information visit http://projects.coin-or.org/Ipopt
******************************************************************************

This is Ipopt version 3.12.10, running with linear solver ma97.

Number of nonzeros in equality constraint Jacobian...:   123443
Number of nonzeros in inequality constraint Jacobian.:      213
Number of nonzeros in Lagrangian Hessian.............:    49069

Total number of variables............................:    31591
                     variables with only lower bounds:    12912
                variables with lower and upper bounds:    15130
                     variables with only upper bounds:        0
Total number of equality constraints.................:    31483
Total number of inequality constraints...............:       25
        inequality constraints with only lower bounds:        4
   inequality constraints with lower and upper bounds:        0
        inequality constraints with only upper bounds:       21

iter    objective    inf_pr   inf_du lg(mu)  ||d||  lg(rg) alpha_du alpha_pr  ls
   0 -4.8370533e+00 5.50e-03 1.02e+00  -6.0 0.00e+00    -  0.00e+00 0.00e+00   0
   1 -4.8529541e+00 5.40e+00 3.13e+01  -6.0 5.78e+05    -  6.46e-05 6.25e-04h  1
   2 -4.8530638e+00 5.40e+00 2.30e+03  -6.0 6.48e+04    -  4.55e-02 5.58e-05h  1
   3 -4.8532618e+00 2.55e+01 2.29e+03  -6.0 1.39e+05    -  6.77e-03 8.85e-03h  1
   4 -4.8547748e+00 2.52e+01 2.27e+03  -6.0 4.33e+03    -  9.67e-06 1.88e-02h  1
   5 -4.8537132e+00 2.52e+01 2.42e+04  -6.0 3.10e+03    -  1.61e-03 7.07e-04h  8
   6 -4.8584897e+00 2.37e+01 3.88e+04  -6.0 1.13e+03    -  4.37e-02 6.00e-02h  1
   7 -4.8585436e+00 2.37e+01 4.10e+04  -6.0 1.21e+03    -  4.37e-01 6.14e-04h  1
   8 -4.8555889e+00 1.75e+01 2.05e+05  -6.0 1.03e+03    -  6.88e-02 3.64e-01h  1
   9 -4.8586708e+00 1.70e+01 7.81e+04  -6.0 1.25e+03    -  9.91e-01 3.05e-02h  1
iter    objective    inf_pr   inf_du lg(mu)  ||d||  lg(rg) alpha_du alpha_pr  ls
  10 -4.8760524e+00 1.47e+01 6.51e+04  -6.0 1.19e+03    -  5.40e-01 1.78e-01h  1
  11 -4.9307142e+00 1.40e+01 1.08e+04  -6.0 1.08e+03    -  2.51e-01 6.94e-01h  1
  12 -4.9303774e+00 1.26e+01 6.16e+04  -6.0 2.31e+01  -4.0 2.25e-02 9.88e-02h  1
  13 -4.9280111e+00 4.51e+00 3.07e+05  -6.0 2.11e+01  -4.5 1.01e-01 6.43e-01h  1
  14 -4.9228081e+00 6.60e-01 5.82e+05  -6.0 3.75e+01  -5.0 1.35e-01 8.54e-01h  1
  15 -4.9221940e+00 2.55e-02 6.69e+02  -6.0 1.52e+01  -5.4 5.23e-02 1.00e+00h  1
  16 -4.9373050e+00 4.95e-01 4.53e+02  -6.0 3.66e+01  -5.9 1.00e+00 1.00e+00h  1
  17 -4.9385121e+00 1.31e-01 1.32e+02  -6.0 7.48e+01  -6.4 6.56e-01 7.39e-01h  1
  18 -4.9388140e+00 2.16e-01 1.57e+01  -6.0 9.82e+01  -6.9 6.81e-01 8.80e-01h  1
  19 -4.9461552e+00 4.65e-01 5.58e+03  -6.0 6.00e+02  -7.3 3.69e-01 1.66e-01h  1
iter    objective    inf_pr   inf_du lg(mu)  ||d||  lg(rg) alpha_du alpha_pr  ls
  20 -4.9511939e+00 9.66e-01 2.49e+03  -6.0 2.78e+03  -7.8 1.51e-01 4.88e-02h  1
  21 -4.9551890e+00 1.02e+00 1.03e+03  -6.0 8.68e+02    -  4.03e-01 2.02e-01h  1
  22 -4.9567999e+00 9.18e-01 6.67e+04  -6.0 5.04e+02    -  9.08e-02 1.25e-01h  1
  23 -4.9603531e+00 8.50e-01 4.72e+05  -6.0 6.03e+02    -  1.00e+00 2.11e-01h  1
  24 -4.9677918e+00 1.04e+00 3.54e+05  -6.0 4.94e+02    -  5.26e-01 3.84e-01h  1
  25r-4.9677918e+00 1.04e+00 1.00e+03   0.0 0.00e+00    -  0.00e+00 2.19e-07R  2
  26r-4.9747596e+00 1.04e+00 1.00e+03   0.0 2.33e+04    -  1.51e-06 7.75e-07f  1
  27 -4.9762786e+00 1.04e+00 3.00e+02  -6.0 1.75e+05    -  6.53e-04 5.26e-03h  1
  28 -4.9850245e+00 1.04e+00 2.95e+02  -6.0 8.43e+04    -  4.63e-04 1.31e-02h  1
  29 -4.9927536e+00 1.03e+00 2.87e+02  -6.0 1.68e+04    -  7.21e-02 2.25e-02h  1
iter    objective    inf_pr   inf_du lg(mu)  ||d||  lg(rg) alpha_du alpha_pr  ls
  30 -4.9924062e+00 1.01e+00 2.78e+02  -6.0 1.45e+03    -  5.59e-02 3.28e-02h  4
  31 -4.9912337e+00 1.10e+00 2.55e+02  -6.0 1.17e+03    -  4.32e-01 8.98e-02h  3
  32 -4.9911442e+00 1.09e+00 2.56e+02  -6.0 4.91e+03    -  2.08e-01 9.56e-03h  6
  33 -4.9782437e+00 1.24e+00 5.33e+02  -6.0 8.08e+02    -  4.82e-01 1.00e+00H  1
  34 -4.9776908e+00 1.19e+00 1.43e+03  -6.0 1.57e+03    -  1.08e-01 1.00e+00H  1
  35 -4.9797826e+00 1.43e+00 1.12e+03  -6.0 5.37e+02    -  2.48e-02 2.11e-01h  2
  36 -4.9831880e+00 1.86e+00 4.24e+02  -6.0 3.39e+02    -  1.00e+00 6.22e-01h  1
  37 -4.9825882e+00 3.68e-01 1.57e+03  -6.0 1.07e+02    -  1.70e-02 1.00e+00h  1
  38 -4.9823449e+00 1.09e-02 2.95e+00  -6.0 1.84e+01    -  9.47e-01 1.00e+00h  1
  39 -4.9823631e+00 1.25e-05 1.43e-04  -6.0 6.21e-01    -  1.00e+00 1.00e+00h  1
iter    objective    inf_pr   inf_du lg(mu)  ||d||  lg(rg) alpha_du alpha_pr  ls
  40 -4.9823631e+00 2.84e-10 9.65e-11  -6.0 5.37e-04    -  1.00e+00 1.00e+00h  1
  41 -4.9824218e+00 2.04e-01 1.69e+02  -7.5 7.49e+02    -  7.32e-01 1.50e-01f  1
  42 -4.9826336e+00 7.06e+00 1.80e+01  -7.5 7.91e+02    -  7.02e-01 8.33e-01h  1
  43 -4.9825758e+00 1.66e-01 1.88e-01  -7.5 9.50e+01    -  1.00e+00 1.00e+00h  1
  44 -4.9825739e+00 7.76e-04 3.08e-04  -7.5 6.82e+00    -  1.00e+00 1.00e+00h  1
  45 -4.9825739e+00 2.84e-10 4.53e-09  -7.5 1.94e-03    -  1.00e+00 1.00e+00h  1
  46 -4.9825758e+00 8.26e-03 9.76e-01  -9.0 2.65e+01    -  9.42e-01 8.36e-01h  1
  47 -4.9825760e+00 3.29e-04 3.60e-04  -9.0 4.42e+00    -  1.00e+00 1.00e+00h  1
  48 -4.9825760e+00 3.53e-10 2.43e-09  -9.0 4.92e-03    -  1.00e+00 1.00e+00h  1

Number of Iterations....: 48

                                   (scaled)                 (unscaled)
Objective...............:  -3.8926374874895537e+00   -4.9825759839866288e+00
Dual infeasibility......:   2.4298851481229103e-09    3.1102529895973251e-09
Constraint violation....:   2.7931990477080698e-10    3.5288394428789616e-10
Complementarity.........:   1.2160972277155516e-09    1.5566044514759061e-09
Overall NLP error.......:   2.4298851481229103e-09    3.1102529895973251e-09


Number of objective function evaluations             = 85
Number of objective gradient evaluations             = 49
Number of equality constraint evaluations            = 85
Number of inequality constraint evaluations          = 85
Number of equality constraint Jacobian evaluations   = 50
Number of inequality constraint Jacobian evaluations = 50
Number of Lagrangian Hessian evaluations             = 48
Total CPU secs in IPOPT (w/o function evaluations)   =     86.729
Total CPU secs in NLP function evaluations           =      1.975

EXIT: Optimal Solution Found.
